p edge 18 38
e 1 9
e 1 16
e 2 9
e 2 17
e 3 14
e 3 18
e 4 15
e 4 18
e 5 6
e 5 7
e 5 8
e 5 9
e 5 10
e 5 11
e 5 12
e 5 13
e 6 7
e 6 8
e 6 9
e 6 10
e 6 11
e 6 12
e 6 13
e 7 8
e 7 9
e 7 10
e 8 9
e 8 10
e 8 11
e 9 10
e 9 11
e 9 12
e 9 13
e 9 16
e 9 17
e 12 13
e 14 18
e 15 18
